unsat
(:max-memory         18.42
 :memory             18.33
 :nlsat-arith-var    3
 :nlsat-atoms        11
 :nlsat-bool-var     1
 :nlsat-clauses      9
 :nlsat-conflicts    3
 :nlsat-propagations 11
 :nlsat-stages       3
 :num-allocs         51389
 :rlimit-count       1106
 :time               0.00
 :total-time         0.02)
